Problem:    soluzione
Rows:       19
Columns:    25 (24 integer, 24 binary)
Non-zeros:  122
Status:     INTEGER OPTIMAL
Objective:  z = 29086 (MINimum)

   No.   Row name        Activity     Lower bound   Upper bound
------ ------------    ------------- ------------- -------------
     1 PesoMassimoPerAereo[1]
                                1930                        2900 
     2 PesoMassimoPerAereo[2]
                                1950                        1950 
     3 VolumeMassimoPerAereo[1]
                                  78                          90 
     4 VolumeMassimoPerAereo[2]
                                  80                         100 
     5 MassimoAssegnamento[1]
                                   1                           1 
     6 MassimoAssegnamento[2]
                                   1                           1 
     7 MassimoAssegnamento[3]
                                   1                           1 
     8 MassimoAssegnamento[4]
                                   0                           1 
     9 MassimoAssegnamento[5]
                                   1                           1 
    10 MassimoAssegnamento[6]
                                   1                           1 
    11 MassimoAssegnamento[7]
                                   1                           1 
    12 MassimoAssegnamento[8]
                                   1                           1 
    13 MassimoAssegnamento[9]
                                   1                           1 
    14 MassimoAssegnamento[10]
                                   1                           1 
    15 MassimoAssegnamento[11]
                                   1                           1 
    16 MassimoAssegnamento[12]
                                   1                           1 
    17 DefinizioneSpese
                                3500          3500             = 
    18 ImballiCaricati
                                  11            11             = 
    19 z                       29086                             

   No. Column name       Activity     Lower bound   Upper bound
------ ------------    ------------- ------------- -------------
     1 Assegnamento[1,1]
                    *              0             0             1 
     2 Assegnamento[1,2]
                    *              1             0             1 
     3 Assegnamento[1,3]
                    *              1             0             1 
     4 Assegnamento[1,4]
                    *              0             0             1 
     5 Assegnamento[1,5]
                    *              0             0             1 
     6 Assegnamento[1,6]
                    *              1             0             1 
     7 Assegnamento[1,7]
                    *              1             0             1 
     8 Assegnamento[1,8]
                    *              0             0             1 
     9 Assegnamento[1,9]
                    *              1             0             1 
    10 Assegnamento[1,10]
                    *              0             0             1 
    11 Assegnamento[1,11]
                    *              0             0             1 
    12 Assegnamento[1,12]
                    *              0             0             1 
    13 Assegnamento[2,1]
                    *              1             0             1 
    14 Assegnamento[2,2]
                    *              0             0             1 
    15 Assegnamento[2,3]
                    *              0             0             1 
    16 Assegnamento[2,4]
                    *              0             0             1 
    17 Assegnamento[2,5]
                    *              1             0             1 
    18 Assegnamento[2,6]
                    *              0             0             1 
    19 Assegnamento[2,7]
                    *              0             0             1 
    20 Assegnamento[2,8]
                    *              1             0             1 
    21 Assegnamento[2,9]
                    *              0             0             1 
    22 Assegnamento[2,10]
                    *              1             0             1 
    23 Assegnamento[2,11]
                    *              1             0             1 
    24 Assegnamento[2,12]
                    *              1             0             1 
    25 Spese                   29086             0               

Integer feasibility conditions:

KKT.PE: max.abs.err = 0.00e+000 on row 0
        max.rel.err = 0.00e+000 on row 0
        High quality

KKT.PB: max.abs.err = 0.00e+000 on row 0
        max.rel.err = 0.00e+000 on row 0
        High quality

End of output
